Grasp exp. instance_n_20_m_10_id_2.lp tipoLifted 0 szPool 1 nIteration 100 alpha 1 
Academic license - for non-commercial use only
Read LP format model from file ../input/instancesGenerated/instance_n_20_m_10_id_2.lp
Reading time = 0.00 seconds
: 10 rows, 20 columns, 104 nonzeros
Optimize a model with 10 rows, 20 columns and 104 nonzeros
Variable types: 0 continuous, 20 integer (20 binary)
Coefficient statistics:
  Matrix range     [1e+00, 1e+01]
  Objective range  [1e+00, 1e+01]
  Bounds range     [1e+00, 1e+00]
  RHS range        [2e+01, 3e+01]
Found heuristic solution: objective 42.0000000

Explored 0 nodes (0 simplex iterations) in 0.00 seconds
Thread count was 1 (of 8 available processors)

Solution count 1: 42 
No other solutions better than 0

Solution limit reached
Best objective 4.200000000000e+01, best bound -, gap -
C_1:	 9.00 x_1  = 1.000000 + 8.00 x_2  = 0.000000 + 5.00 x_3  = 0.461994 + 5.00 x_7  = 0.000000 + 8.00 x_9  = 0.000000 + 2.00 x_10  = 0.891217 + 9.00 x_13  = 0.776061 + 3.00 x_15  = 0.245656 + 2.00 x_16  = 1.000000 + 7.00 x_18  = 0.499133 + 8.00 x_19  = 0.836518 <= 33.00
C_2:	 6.00 x_1  = 1.000000 + 8.00 x_2  = 0.000000 + 1.00 x_4  = 1.000000 + 10.00 x_5  = 0.199131 + 8.00 x_6  = 0.000000 + 5.00 x_8  = 1.000000 + 2.00 x_12  = 0.000000 + 2.00 x_13  = 0.776061 + 10.00 x_15  = 0.245656 + 10.00 x_16  = 1.000000 + 4.00 x_17  = 1.000000 + 2.00 x_20  = 1.000000 <= 34.00
C_3:	 3.00 x_1  = 1.000000 + 4.00 x_2  = 0.000000 + 3.00 x_3  = 0.461994 + 3.00 x_4  = 1.000000 + 4.00 x_5  = 0.199131 + 8.00 x_7  = 0.000000 + 10.00 x_8  = 1.000000 + 9.00 x_9  = 0.000000 + 1.00 x_10  = 0.891217 + 1.00 x_12  = 0.000000 + 1.00 x_14  = 1.000000 + 1.00 x_18  = 0.499133 + 5.00 x_20  = 1.000000 <= 26.00
C_4:	 6.00 x_4  = 1.000000 + 9.00 x_6  = 0.000000 + 6.00 x_7  = 0.000000 + 5.00 x_9  = 0.000000 + 1.00 x_10  = 0.891217 + 10.00 x_12  = 0.000000 + 8.00 x_15  = 0.245656 + 8.00 x_19  = 0.836518 <= 26.00
C_5:	 6.00 x_6  = 0.000000 + 10.00 x_7  = 0.000000 + 7.00 x_11  = 1.000000 + 6.00 x_14  = 1.000000 + 4.00 x_15  = 0.245656 + 2.00 x_18  = 0.499133 + 6.00 x_19  = 0.836518 <= 20.00
C_6:	 7.00 x_3  = 0.461994 + 1.00 x_5  = 0.199131 + 8.00 x_6  = 0.000000 + 2.00 x_7  = 0.000000 + 3.00 x_9  = 0.000000 + 6.00 x_10  = 0.891217 + 4.00 x_14  = 1.000000 + 5.00 x_15  = 0.245656 + 8.00 x_16  = 1.000000 + 10.00 x_18  = 0.499133 <= 27.00
C_7:	 6.00 x_1  = 1.000000 + 4.00 x_3  = 0.461994 + 9.00 x_4  = 1.000000 + 6.00 x_6  = 0.000000 + 10.00 x_7  = 0.000000 + 4.00 x_9  = 0.000000 + 5.00 x_12  = 0.000000 + 7.00 x_13  = 0.776061 + 6.00 x_14  = 1.000000 + 7.00 x_15  = 0.245656 + 2.00 x_16  = 1.000000 + 2.00 x_20  = 1.000000 <= 34.00
C_8:	 4.00 x_1  = 1.000000 + 8.00 x_2  = 0.000000 + 2.00 x_4  = 1.000000 + 8.00 x_6  = 0.000000 + 8.00 x_7  = 0.000000 + 9.00 x_9  = 0.000000 + 1.00 x_10  = 0.891217 + 2.00 x_15  = 0.245656 + 6.00 x_17  = 1.000000 + 5.00 x_18  = 0.499133 + 10.00 x_19  = 0.836518 <= 31.00
C_9:	 3.00 x_1  = 1.000000 + 3.00 x_4  = 1.000000 + 10.00 x_5  = 0.199131 + 4.00 x_6  = 0.000000 + 6.00 x_7  = 0.000000 + 1.00 x_8  = 1.000000 + 1.00 x_11  = 1.000000 + 10.00 x_12  = 0.000000 + 2.00 x_14  = 1.000000 + 7.00 x_16  = 1.000000 + 1.00 x_18  = 0.499133 + 3.00 x_19  = 0.836518 + 6.00 x_20  = 1.000000 <= 28.00
C_10:	 3.00 x_5  = 0.199131 + 7.00 x_8  = 1.000000 + 7.00 x_9  = 0.000000 + 4.00 x_10  = 0.891217 + 6.00 x_12  = 0.000000 + 3.00 x_13  = 0.776061 + 3.00 x_19  = 0.836518 <= 16.00
Solution initial: 73.848370 
Number Constraints Used in Cover:10
GRASP Method!
Number cuts repeat: 0
value: 73.848370
Number Constraints Used in Cover:13
GRASP Method!
Number cuts repeat: 0
value: 73.848370
Number Constraints Used in Cover:17
GRASP Method!
Number cuts repeat: 0
value: 73.848370
Number Constraints Used in Cover:21
GRASP Method!
Number cuts repeat: 0
value: 73.848370
Number Constraints Used in Cover:24
GRASP Method!
Number cuts repeat: 0
value: 73.848370
Number Constraints Used in Cover:28
GRASP Method!
Number cuts repeat: 0
value: 73.848370
Number Constraints Used in Cover:31
GRASP Method!
Number cuts repeat: 0
value: 73.848370
Number Constraints Used in Cover:34
GRASP Method!
Number cuts repeat: 0
value: 73.848370
Number Constraints Used in Cover:37
GRASP Method!
Number cuts repeat: 0
value: 73.848370
Number Constraints Used in Cover:41
GRASP Method!
Number cuts repeat: 0
value: 73.848370
Number Constraints Used in Cover:45
GRASP Method!
Number cuts repeat: 0
value: 73.848370
Number Constraints Used in Cover:50
GRASP Method!
Number cuts repeat: 0
value: 73.848370
Number Constraints Used in Cover:54
GRASP Method!
Number cuts repeat: 0
value: 73.848370
Number Constraints Used in Cover:59
GRASP Method!
Number cuts repeat: 0
value: 73.848370
Number Constraints Used in Cover:62
GRASP Method!
Number cuts repeat: 0
value: 73.848370
Number Constraints Used in Cover:65
GRASP Method!
Number cuts repeat: 0
value: 73.848370
Number Constraints Used in Cover:69
GRASP Method!
Number cuts repeat: 0
value: 73.848370
Number Constraints Used in Cover:72
GRASP Method!
Number cuts repeat: 0
value: 73.848370
Number Constraints Used in Cover:77
GRASP Method!
Number cuts repeat: 0
value: 73.848370
Number Constraints Used in Cover:80
GRASP Method!
Number cuts repeat: 0
value: 73.848370
Number Constraints Used in Cover:85
GRASP Method!
Number cuts repeat: 0
value: 73.848370
Number Constraints Used in Cover:90
GRASP Method!
Number cuts repeat: 0
value: 73.848370
Number Constraints Used in Cover:93
GRASP Method!
Number cuts repeat: 0
value: 73.848370
Number Constraints Used in Cover:97
GRASP Method!
Number cuts repeat: 0
value: 73.848370
Number Constraints Used in Cover:100
GRASP Method!
Number cuts repeat: 0
value: 73.848370
Number Constraints Used in Cover:104
GRASP Method!
Number cuts repeat: 0
value: 73.848370
Number Constraints Used in Cover:110
GRASP Method!
Number cuts repeat: 0
value: 73.848370
Number Constraints Used in Cover:114
GRASP Method!
Number cuts repeat: 0
value: 73.848370
Number Constraints Used in Cover:117
GRASP Method!
Number cuts repeat: 0
value: 73.848370
Number Constraints Used in Cover:120
GRASP Method!
Number cuts repeat: 0
value: 73.848370
Number Constraints Used in Cover:127
GRASP Method!
Number cuts repeat: 0
value: 73.848370
Number Constraints Used in Cover:135
GRASP Method!
Number cuts repeat: 0
value: 73.848370
Number Constraints Used in Cover:144
GRASP Method!
Number cuts repeat: 0
value: 73.848370
Number Constraints Used in Cover:151
GRASP Method!
Number cuts repeat: 0
value: 73.848370
Number Constraints Used in Cover:159
GRASP Method!
Number cuts repeat: 0
value: 73.848370
Number Constraints Used in Cover:166
GRASP Method!
Number cuts repeat: 0
value: 73.848370
Number Constraints Used in Cover:173
GRASP Method!
Number cuts repeat: 0
value: 73.848370
Number Constraints Used in Cover:181
GRASP Method!
Number cuts repeat: 0
value: 73.848370
Number Constraints Used in Cover:186
GRASP Method!
Number cuts repeat: 0
value: 73.848370
Number Constraints Used in Cover:192
GRASP Method!
Number cuts repeat: 0
value: 73.848370
Number Constraints Used in Cover:197
GRASP Method!
Number cuts repeat: 0
value: 73.848370
Number Constraints Used in Cover:201
GRASP Method!
Number cuts repeat: 0
value: 73.848370
Number Constraints Used in Cover:208
GRASP Method!
Number cuts repeat: 0
value: 73.848370
Number Constraints Used in Cover:218
GRASP Method!
Number cuts repeat: 0
value: 73.848370
Number Constraints Used in Cover:226
GRASP Method!
Number cuts repeat: 0
value: 73.848370
Number Constraints Used in Cover:233
GRASP Method!
Number cuts repeat: 0
value: 73.848370
Number Constraints Used in Cover:240
GRASP Method!
Number cuts repeat: 0
value: 73.848370
Number Constraints Used in Cover:248
GRASP Method!
Number cuts repeat: 0
value: 73.848370
Number Constraints Used in Cover:254
GRASP Method!
Number cuts repeat: 0
value: 73.848370
Number Constraints Used in Cover:261
GRASP Method!
Number cuts repeat: 0
value: 73.848055
Number Constraints Used in Cover:270
GRASP Method!
Number cuts repeat: 0
value: 73.848055
Number Constraints Used in Cover:277
GRASP Method!
Number cuts repeat: 0
value: 73.848055
Number Constraints Used in Cover:284
GRASP Method!
Number cuts repeat: 0
value: 73.848055
Number Constraints Used in Cover:291
GRASP Method!
Number cuts repeat: 0
value: 73.848055
Number Constraints Used in Cover:298
GRASP Method!
Number cuts repeat: 0
value: 73.848055
Number Constraints Used in Cover:308
GRASP Method!
Number cuts repeat: 0
value: 73.848055
Number Constraints Used in Cover:315
GRASP Method!
Number cuts repeat: 0
value: 73.848055
Number Constraints Used in Cover:321
GRASP Method!
Number cuts repeat: 0
value: 73.848055
Number Constraints Used in Cover:329
GRASP Method!
Number cuts repeat: 0
value: 73.848055
Number Constraints Used in Cover:338
GRASP Method!
Number cuts repeat: 0
value: 73.848055
Number Constraints Used in Cover:347
GRASP Method!
Number cuts repeat: 0
value: 73.848055
Number Constraints Used in Cover:353
GRASP Method!
Number cuts repeat: 0
value: 73.848055
Number Constraints Used in Cover:363
GRASP Method!
Number cuts repeat: 0
value: 73.848055
Number Constraints Used in Cover:373
GRASP Method!
Number cuts repeat: 0
value: 73.848055
Number Constraints Used in Cover:383
GRASP Method!
Number cuts repeat: 0
value: 73.848055
Number Constraints Used in Cover:391
GRASP Method!
Number cuts repeat: 0
value: 73.848055
Number Constraints Used in Cover:399
GRASP Method!
Number cuts repeat: 0
value: 73.848055
Number Constraints Used in Cover:406
GRASP Method!
Number cuts repeat: 0
value: 73.848055
Number Constraints Used in Cover:415
GRASP Method!
Number cuts repeat: 0
value: 73.848055
Number Constraints Used in Cover:422
GRASP Method!
Number cuts repeat: 0
value: 73.848055
Number Constraints Used in Cover:435
GRASP Method!
Number cuts repeat: 0
value: 73.848055
Number Constraints Used in Cover:444
GRASP Method!
Number cuts repeat: 0
value: 73.848055
Number Constraints Used in Cover:454
GRASP Method!
Number cuts repeat: 0
value: 73.848055
Number Constraints Used in Cover:465
GRASP Method!
Number cuts repeat: 0
value: 73.848055
Number Constraints Used in Cover:475
GRASP Method!
Number cuts repeat: 0
value: 73.848055
Number Constraints Used in Cover:479
GRASP Method!
Number cuts repeat: 0
value: 73.848055
Number Constraints Used in Cover:487
GRASP Method!
Number cuts repeat: 0
value: 73.848055
Number Constraints Used in Cover:498
GRASP Method!
Number cuts repeat: 0
value: 73.848055
Number Constraints Used in Cover:505
GRASP Method!
Number cuts repeat: 0
value: 73.848055
Number Constraints Used in Cover:513
GRASP Method!
Number cuts repeat: 0
value: 73.848055
Number Constraints Used in Cover:520
GRASP Method!
Number cuts repeat: 0
value: 73.848055
Number Constraints Used in Cover:525
GRASP Method!
Number cuts repeat: 0
value: 73.848055
Number Constraints Used in Cover:532
GRASP Method!
Number cuts repeat: 0
value: 73.848055
Number Constraints Used in Cover:538
GRASP Method!
Number cuts repeat: 0
value: 73.848055
Number Constraints Used in Cover:550
GRASP Method!
Number cuts repeat: 0
value: 73.848055
Number Constraints Used in Cover:559
GRASP Method!
Number cuts repeat: 0
value: 73.848055
Number Constraints Used in Cover:565
GRASP Method!
Number cuts repeat: 0
value: 73.848055
Number Constraints Used in Cover:570
GRASP Method!
Number cuts repeat: 0
value: 73.848055
Number Constraints Used in Cover:577
GRASP Method!
Number cuts repeat: 0
value: 73.848055
Number Constraints Used in Cover:587
GRASP Method!
Number cuts repeat: 0
value: 73.848055
Number Constraints Used in Cover:595
GRASP Method!
Number cuts repeat: 0
value: 73.848055
Number Constraints Used in Cover:601
GRASP Method!
Number cuts repeat: 0
value: 73.848055
Number Constraints Used in Cover:607
GRASP Method!
Number cuts repeat: 0
value: 73.848055
Number Constraints Used in Cover:613
GRASP Method!
Number cuts repeat: 0
value: 73.848055
Number Constraints Used in Cover:621
GRASP Method!
Number cuts repeat: 0
value: 73.848055
Number Constraints Used in Cover:627
GRASP Method!
Number cuts repeat: 0
value: 73.848055
Number Constraints Used in Cover:633
GRASP Method!
Number cuts repeat: 0
value: 73.848055
Number Constraints Used in Cover:639
GRASP Method!
Number cuts repeat: 0
value: 73.848055
Number Constraints Used in Cover:645
GRASP Method!
Number cuts repeat: 0
value: 73.848055
Number Constraints Used in Cover:654
GRASP Method!
Number cuts repeat: 0
value: 73.848055
Number Constraints Used in Cover:664
GRASP Method!
Number cuts repeat: 0
value: 73.848055
Number Constraints Used in Cover:670
GRASP Method!
Number cuts repeat: 0
value: 73.848055
Number Constraints Used in Cover:679
GRASP Method!
Number cuts repeat: 0
value: 73.848055
Number Constraints Used in Cover:686
GRASP Method!
Number cuts repeat: 0
value: 73.848055
Number Constraints Used in Cover:691
GRASP Method!
Number cuts repeat: 0
value: 73.848055
Number Constraints Used in Cover:698
GRASP Method!
Number cuts repeat: 0
value: 73.848055
Number Constraints Used in Cover:706
GRASP Method!
Number cuts repeat: 0
value: 73.848055
Number Constraints Used in Cover:714
GRASP Method!
Number cuts repeat: 0
value: 73.848055
Number Constraints Used in Cover:720
GRASP Method!
Number cuts repeat: 0
value: 73.848055
Number Constraints Used in Cover:726
GRASP Method!
Number cuts repeat: 0
value: 73.848055
Number Constraints Used in Cover:730
GRASP Method!
Number cuts repeat: 0
value: 73.848055
Number Constraints Used in Cover:739
GRASP Method!
Number cuts repeat: 0
value: 73.848055
Number Constraints Used in Cover:748
GRASP Method!
Number cuts repeat: 0
value: 73.848055
Number Constraints Used in Cover:755
GRASP Method!
Number cuts repeat: 0
value: 73.848055
Number Constraints Used in Cover:762
GRASP Method!
Number cuts repeat: 0
value: 73.848055
Number Constraints Used in Cover:770
GRASP Method!
Number cuts repeat: 0
value: 73.848055
Number Constraints Used in Cover:777
GRASP Method!
Number cuts repeat: 0
value: 73.848055
Number Constraints Used in Cover:784
GRASP Method!
Number cuts repeat: 0
value: 73.848055
Number Constraints Used in Cover:796
GRASP Method!
Number cuts repeat: 0
value: 73.848055
Number Constraints Used in Cover:802
GRASP Method!
Number cuts repeat: 0
value: 73.848055
Number Constraints Used in Cover:810
GRASP Method!
Number cuts repeat: 0
value: 73.848055
Number Cuts Final: 809
